174933
700739
850503
819197
342725
343893
433636
379205
961730
287480
402199
274465
71114
243752
498820
585686
836695
345976
421020
57536
541672
897155
103447
681128
853936
178653
641981
889343
301004
595734
86204
910065
576034
637213
847191
975723
896985
482866
394375
897095
145893
604959
248214
975175
926347
379158
14685
346952
994641
545336
353092
639269
743711
340177
320467
239522
548851
261227
493843
582761
820327
715946
635926
601820
550386
259537
440200
890448
990826
731751
68291
188961
852117
365594
775363
517766
76249
859766
908632
656166
802833
481895
959571
692201
621634
501053
152118
53819
584585
635736
257252
772513
736458
747454
938505
727623
115783
710247
953541
272820